c "61042.clq"
p edge 80 304
e 1 5
e 1 6
e 1 7
e 1 11
e 1 14
e 1 17
e 1 18
e 1 19
e 1 25
e 1 31
e 1 40
e 1 51
e 1 59
e 1 66
e 2 5
e 2 6
e 2 7
e 2 8
e 2 10
e 2 13
e 2 14
e 2 16
e 2 18
e 2 19
e 2 23
e 2 24
e 2 25
e 2 28
e 2 29
e 2 31
e 2 35
e 2 42
e 2 47
e 2 48
e 2 57
e 2 62
e 2 72
e 2 74
e 2 77
e 3 5
e 3 6
e 3 9
e 3 27
e 3 58
e 4 5
e 4 10
e 4 12
e 4 23
e 4 60
e 5 6
e 5 7
e 5 8
e 5 9
e 5 10
e 5 12
e 5 16
e 5 17
e 5 20
e 5 21
e 5 25
e 5 26
e 5 31
e 5 33
e 5 43
e 5 44
e 5 46
e 5 47
e 5 49
e 5 53
e 5 62
e 5 71
e 5 73
e 6 7
e 6 8
e 6 9
e 6 10
e 6 11
e 6 12
e 6 13
e 6 14
e 6 16
e 6 21
e 6 24
e 6 26
e 6 27
e 6 28
e 6 29
e 6 31
e 6 33
e 6 39
e 6 41
e 6 42
e 6 55
e 6 56
e 6 63
e 6 68
e 6 69
e 6 73
e 6 74
e 6 75
e 6 79
e 7 8
e 7 11
e 7 12
e 7 15
e 7 17
e 7 21
e 7 30
e 7 32
e 7 45
e 7 48
e 7 52
e 7 64
e 7 73
e 8 9
e 8 13
e 8 15
e 8 21
e 8 22
e 8 24
e 8 26
e 8 27
e 8 41
e 8 50
e 8 54
e 8 56
e 8 58
e 8 67
e 8 71
e 8 72
e 9 13
e 9 19
e 9 28
e 9 29
e 9 30
e 9 34
e 9 36
e 9 43
e 9 47
e 9 65
e 10 11
e 10 35
e 10 45
e 10 60
e 11 14
e 11 17
e 11 26
e 11 36
e 11 38
e 11 50
e 11 57
e 11 58
e 11 61
e 11 62
e 11 76
e 12 15
e 12 18
e 12 20
e 12 22
e 12 46
e 12 73
e 12 79
e 13 16
e 13 38
e 13 40
e 13 53
e 13 70
e 14 15
e 14 23
e 14 33
e 14 63
e 14 66
e 14 71
e 15 20
e 15 65
e 16 18
e 16 19
e 16 22
e 16 25
e 16 32
e 16 35
e 16 42
e 16 44
e 16 52
e 16 54
e 17 77
e 18 20
e 18 29
e 18 37
e 18 56
e 18 78
e 19 34
e 19 43
e 19 44
e 19 59
e 19 64
e 19 69
e 20 23
e 20 27
e 20 32
e 20 46
e 20 62
e 20 70
e 21 22
e 21 30
e 21 34
e 21 38
e 21 41
e 21 46
e 21 54
e 21 56
e 21 76
e 21 79
e 22 24
e 23 34
e 23 37
e 23 51
e 23 52
e 24 28
e 24 49
e 24 51
e 24 59
e 25 30
e 25 36
e 25 58
e 25 61
e 26 36
e 26 55
e 27 32
e 28 33
e 28 72
e 29 35
e 29 66
e 29 80
e 30 76
e 31 39
e 31 45
e 31 61
e 31 76
e 32 37
e 32 42
e 32 63
e 32 68
e 33 41
e 34 40
e 35 38
e 35 43
e 35 45
e 35 49
e 35 63
e 35 65
e 35 68
e 35 78
e 36 37
e 36 39
e 36 40
e 36 55
e 36 75
e 36 77
e 36 78
e 37 50
e 37 67
e 38 39
e 38 57
e 38 80
e 39 53
e 39 57
e 39 74
e 40 60
e 41 44
e 41 47
e 41 49
e 41 69
e 42 48
e 43 66
e 44 51
e 44 59
e 44 61
e 44 64
e 44 71
e 44 72
e 44 79
e 45 53
e 45 74
e 46 48
e 46 50
e 46 77
e 47 54
e 48 78
e 49 68
e 50 52
e 51 55
e 54 64
e 55 70
e 56 65
e 56 67
e 57 60
e 57 80
e 60 67
e 63 70
e 64 75
e 68 69
e 72 75
e 72 80
